%nprocs=4
#P PM6=(print,zero,input) opt

the title

0 1
C  0.0000000000  0.0000000000 -0.0000000318
H  0.0000000000  0.0000000000  1.0840336982
H  1.0220367932  0.0000000000 -0.3613445025
H -0.5110183966 -0.8851098265 -0.3613445025
H -0.5110183966  0.8851098265 -0.3613445025

@params.dat

